p cnf 33 88
a 27 20 0
e 1 2 3 4 5 6 7 8 9 10 11 12 13 14 15 16 17 18 19 21 22 23 24 25 26 28 29 30 31 32 33 0
-3 1 0
-3 2 0
-1 -2 3 0
3 4 -5 0
-3 -4 -5 0
3 -4 5 0
-3 4 5 0
8 -6 0
8 7 0
6 -7 -8 0
-10 -4 0
-10 -9 0
4 9 10 0
-13 11 0
-13 -12 0
-11 12 13 0
-14 10 0
-14 -13 0
-10 13 14 0
-15 -8 0
-15 -14 0
8 14 15 0
-1 3 -16 0
1 -3 -16 0
-1 -3 16 0
1 3 16 0
-9 16 -17 0
9 -16 -17 0
-9 -16 17 0
9 16 17 0
18 -15 0
18 17 0
15 -17 -18 0
19 5 0
19 18 0
-5 -18 -19 0
20 6 0
20 16 0
-6 -16 -20 0
-1 21 -22 0
1 -21 -22 0
-1 -21 22 0
1 21 22 0
-22 6 -23 0
22 -6 -23 0
-22 -6 23 0
22 6 23 0
24 -20 0
24 -23 0
20 23 -24 0
-26 11 0
-26 12 0
-11 -12 26 0
25 26 -27 0
-25 -26 -27 0
25 -26 27 0
-25 26 27 0
-2 9 -28 0
2 -9 -28 0
-2 -9 28 0
2 9 28 0
-2 -12 -29 0
2 12 -29 0
-2 12 29 0
2 -12 29 0
-30 28 0
-30 29 0
-28 -29 30 0
27 -30 -31 0
-27 30 -31 0
27 30 31 0
-27 -30 31 0
-32 -24 0
-32 -31 0
24 31 32 0
-19 32 -33 0
19 -32 -33 0
-19 -32 33 0
19 32 33 0
23 -21 11 -25 0
-9 -17 25 26 -13 27 32 0
14 10 -8 -6 -24 0
-26 28 -14 32 13 -20 11 0
-27 24 -33 -11 28 20 16 0
-14 8 1 33 -26 0
3 -5 -27 8 32 -2 0
25 21 -20 0
33 0
